language Essence 1.3

letting course_load be
        function(1 --> 17, 2 --> 14, 3 --> 12, 4 --> 10, 5 --> 1, 6 --> 14, 7 --> 6, 8 --> 8, 9 --> 8, 10 --> 18,
                 11 --> 10, 12 --> 15, 13 --> 11, 14 --> 12, 15 --> 21, 16 --> 14, 17 --> 12, 18 --> 8, 19 --> 4,
                 20 --> 13, 21 --> 13, 22 --> 9, 23 --> 20, 24 --> 4, 25 --> 7, 26 --> 21, 27 --> 5, 28 --> 3,
                 29 --> 10, 30 --> 16, 31 --> 18, 32 --> 3, 33 --> 10, 34 --> 18, 35 --> 2, 36 --> 15, 37 --> 9,
                 38 --> 2, 39 --> 20)
letting courses_per_period_lb be 1
letting courses_per_period_ub be 4
letting load_per_period_lb be 29
letting load_per_period_ub be 31
letting n_courses be 39
letting n_periods be 14
letting prerequisite be
        relation((32, 2), (32, 4), (32, 7), (32, 8), (33, 2), (33, 4), (33, 6), (33, 12), (34, 5), (34, 6), (34, 9),
                 (34, 10), (34, 11), (34, 13), (35, 2), (35, 3), (35, 4), (35, 7), (35, 13), (36, 1), (36, 5), (36, 6),
                 (36, 7), (36, 8), (36, 9), (36, 10), (37, 1), (37, 2), (37, 5), (37, 6), (37, 7), (37, 9), (37, 11),
                 (38, 3), (38, 8), (38, 12))
$ Visualisation for prerequisite
$ 32  2
$ 32  4
$ 32  7
$ 32  8
$ 33  2
$ 33  4
$ 33  6
$ 33 12
$ 34  5
$ 34  6
$ 34  9
$ 34 10
$ 34 11
$ 34 13
$ 35  2
$ 35  3
$ 35  4
$ 35  7
$ 35 13
$ 36  1
$ 36  5
$ 36  6
$ 36  7
$ 36  8
$ 36  9
$ 36 10
$ 37  1
$ 37  2
$ 37  5
$ 37  6
$ 37  7
$ 37  9
$ 37 11
$ 38  3
$ 38  8
$ 38 12

